RLT06
Position Depot: Center
Horizon for Depot: Large
Position of customers: Random
Distribution of the demand: Small
Width of time windows: Tight
Distribution of the service: Small

VEHICLE 
NUMBER 	 CAPACITY 
 7 	 	 109 
 
CUSTOMER
CUST NO. 	 XCOORD.  	 YCOORD. 	 DEMAND 	 READY TIME 	 DUE DATE 	 SERVICE TIME 
 0 	 	 500 	 	 500 	 	 0 	 	 0 	 	 3219 	 	 0 
  1 	 	 916 	 	 360 	 	 8 	 	 1946 	 	 2130 	 	 60 
  2 	 	 904 	 	 602 	 	 7 	 	 2564 	 	 2675 	 	 66 
  3 	 	 72 	 	 733 	 	 9 	 	 1276 	 	 1388 	 	 91 
  4 	 	 813 	 	 624 	 	 9 	 	 840 	 	 957 	 	 99 
  5 	 	 931 	 	 165 	 	 10 	 	 536 	 	 600 	 	 79 
  6 	 	 365 	 	 132 	 	 9 	 	 953 	 	 1080 	 	 97 
  7 	 	 42 	 	 434 	 	 8 	 	 1986 	 	 2049 	 	 61 
  8 	 	 976 	 	 573 	 	 8 	 	 2643 	 	 2820 	 	 91 
  9 	 	 740 	 	 320 	 	 7 	 	 1094 	 	 1184 	 	 72 
  10 	 	 683 	 	 866 	 	 9 	 	 2982 	 	 3126 	 	 55 
  11 	 	 775 	 	 897 	 	 8 	 	 920 	 	 1063 	 	 56 
  12 	 	 959 	 	 925 	 	 7 	 	 961 	 	 1027 	 	 73 
  13 	 	 972 	 	 692 	 	 9 	 	 2649 	 	 2778 	 	 52 
  14 	 	 921 	 	 583 	 	 7 	 	 2096 	 	 2149 	 	 74 
  15 	 	 675 	 	 98 	 	 5 	 	 286 	 	 482 	 	 61 
  16 	 	 473 	 	 111 	 	 6 	 	 1494 	 	 1561 	 	 82 
  17 	 	 141 	 	 410 	 	 6 	 	 1756 	 	 1830 	 	 82 
  18 	 	 937 	 	 278 	 	 10 	 	 1914 	 	 2010 	 	 73 
  19 	 	 674 	 	 154 	 	 5 	 	 2613 	 	 2697 	 	 54 
  20 	 	 654 	 	 959 	 	 8 	 	 612 	 	 708 	 	 64 
  21 	 	 817 	 	 294 	 	 5 	 	 310 	 	 415 	 	 50 
  22 	 	 609 	 	 712 	 	 6 	 	 99 	 	 262 	 	 94 
  23 	 	 196 	 	 629 	 	 8 	 	 1172 	 	 1260 	 	 71 
  24 	 	 380 	 	 632 	 	 8 	 	 393 	 	 492 	 	 71 
  25 	 	 8 	 	 432 	 	 8 	 	 2907 	 	 3006 	 	 60 
  26 	 	 22 	 	 513 	 	 7 	 	 1863 	 	 1972 	 	 55 
  27 	 	 66 	 	 220 	 	 9 	 	 2921 	 	 3006 	 	 65 
  28 	 	 808 	 	 245 	 	 10 	 	 2164 	 	 2306 	 	 83 
  29 	 	 534 	 	 19 	 	 9 	 	 2052 	 	 2152 	 	 78 
  30 	 	 32 	 	 881 	 	 5 	 	 635 	 	 790 	 	 58 
  31 	 	 881 	 	 689 	 	 8 	 	 2015 	 	 2123 	 	 65 
  32 	 	 57 	 	 380 	 	 6 	 	 2200 	 	 2291 	 	 77 
  33 	 	 837 	 	 551 	 	 6 	 	 1032 	 	 1170 	 	 98 
  34 	 	 782 	 	 919 	 	 10 	 	 2357 	 	 2544 	 	 62 
  35 	 	 302 	 	 607 	 	 6 	 	 324 	 	 513 	 	 52 
  36 	 	 337 	 	 313 	 	 9 	 	 690 	 	 772 	 	 76 
  37 	 	 325 	 	 558 	 	 7 	 	 2424 	 	 2479 	 	 99 
  38 	 	 661 	 	 546 	 	 6 	 	 53 	 	 184 	 	 80 
  39 	 	 51 	 	 209 	 	 8 	 	 426 	 	 588 	 	 95 
  40 	 	 646 	 	 816 	 	 8 	 	 1929 	 	 2116 	 	 85 
  41 	 	 207 	 	 774 	 	 8 	 	 388 	 	 487 	 	 98 
  42 	 	 773 	 	 855 	 	 10 	 	 660 	 	 775 	 	 88 
  43 	 	 724 	 	 897 	 	 7 	 	 434 	 	 501 	 	 92 
  44 	 	 681 	 	 395 	 	 5 	 	 693 	 	 872 	 	 71 
  45 	 	 280 	 	 652 	 	 9 	 	 754 	 	 926 	 	 85 
  46 	 	 151 	 	 463 	 	 5 	 	 1467 	 	 1647 	 	 75 
  47 	 	 411 	 	 56 	 	 10 	 	 374 	 	 498 	 	 72 
  48 	 	 239 	 	 744 	 	 6 	 	 1786 	 	 1978 	 	 80 
  49 	 	 480 	 	 38 	 	 9 	 	 742 	 	 822 	 	 70 
  50 	 	 832 	 	 935 	 	 10 	 	 1146 	 	 1305 	 	 96 
  51 	 	 831 	 	 254 	 	 10 	 	 2988 	 	 3078 	 	 67 
  52 	 	 602 	 	 272 	 	 10 	 	 2151 	 	 2350 	 	 73 
  53 	 	 990 	 	 109 	 	 10 	 	 2754 	 	 2896 	 	 77 
  54 	 	 518 	 	 434 	 	 8 	 	 1908 	 	 2015 	 	 56 
  55 	 	 181 	 	 529 	 	 9 	 	 1763 	 	 1932 	 	 53 
  56 	 	 104 	 	 86 	 	 8 	 	 1574 	 	 1692 	 	 62 
  57 	 	 670 	 	 696 	 	 8 	 	 2277 	 	 2418 	 	 88 
  58 	 	 384 	 	 552 	 	 9 	 	 435 	 	 488 	 	 65 
  59 	 	 500 	 	 394 	 	 7 	 	 2453 	 	 2571 	 	 55 
  60 	 	 166 	 	 403 	 	 5 	 	 3156 	 	 3219 	 	 63 
  61 	 	 870 	 	 353 	 	 6 	 	 650 	 	 774 	 	 86 
  62 	 	 118 	 	 239 	 	 10 	 	 3133 	 	 3186 	 	 76 
  63 	 	 295 	 	 160 	 	 6 	 	 2332 	 	 2416 	 	 88 
  64 	 	 335 	 	 561 	 	 6 	 	 435 	 	 570 	 	 92 
  65 	 	 505 	 	 206 	 	 7 	 	 2526 	 	 2586 	 	 95 
  66 	 	 850 	 	 618 	 	 6 	 	 655 	 	 789 	 	 92 
  67 	 	 518 	 	 195 	 	 6 	 	 2578 	 	 2736 	 	 57 
  68 	 	 334 	 	 596 	 	 9 	 	 2825 	 	 2943 	 	 61 
  69 	 	 2 	 	 771 	 	 10 	 	 2730 	 	 2908 	 	 69 
  70 	 	 391 	 	 552 	 	 8 	 	 1622 	 	 1688 	 	 70 
  71 	 	 344 	 	 138 	 	 7 	 	 1015 	 	 1177 	 	 60 
  72 	 	 959 	 	 472 	 	 6 	 	 1486 	 	 1656 	 	 55 
  73 	 	 786 	 	 452 	 	 10 	 	 402 	 	 594 	 	 61 
  74 	 	 263 	 	 965 	 	 7 	 	 1617 	 	 1742 	 	 97 
  75 	 	 803 	 	 305 	 	 6 	 	 1420 	 	 1503 	 	 92 
  76 	 	 875 	 	 862 	 	 9 	 	 3032 	 	 3137 	 	 84 
  77 	 	 894 	 	 658 	 	 5 	 	 1712 	 	 1817 	 	 66 
  78 	 	 774 	 	 547 	 	 9 	 	 2665 	 	 2775 	 	 58 
  79 	 	 680 	 	 910 	 	 9 	 	 2677 	 	 2744 	 	 100 
  80 	 	 345 	 	 53 	 	 10 	 	 3023 	 	 3187 	 	 66 
  81 	 	 881 	 	 653 	 	 10 	 	 387 	 	 451 	 	 88 
  82 	 	 251 	 	 37 	 	 10 	 	 1413 	 	 1486 	 	 60 
  83 	 	 685 	 	 184 	 	 6 	 	 737 	 	 798 	 	 82 
  84 	 	 626 	 	 873 	 	 9 	 	 2848 	 	 3030 	 	 50 
  85 	 	 695 	 	 418 	 	 8 	 	 3154 	 	 3219 	 	 84 
  86 	 	 900 	 	 245 	 	 9 	 	 945 	 	 1022 	 	 70 
  87 	 	 436 	 	 180 	 	 5 	 	 2036 	 	 2184 	 	 69 
  88 	 	 362 	 	 31 	 	 8 	 	 1324 	 	 1472 	 	 78 
  89 	 	 510 	 	 484 	 	 7 	 	 2918 	 	 3009 	 	 77 
  90 	 	 62 	 	 692 	 	 10 	 	 2083 	 	 2217 	 	 66 
  91 	 	 582 	 	 49 	 	 5 	 	 1528 	 	 1617 	 	 80 
  92 	 	 201 	 	 399 	 	 9 	 	 2412 	 	 2581 	 	 61 
  93 	 	 231 	 	 526 	 	 5 	 	 2472 	 	 2564 	 	 76 
  94 	 	 464 	 	 767 	 	 9 	 	 2614 	 	 2664 	 	 62 
  95 	 	 47 	 	 580 	 	 9 	 	 1590 	 	 1658 	 	 95 
  96 	 	 538 	 	 411 	 	 5 	 	 525 	 	 632 	 	 94 
  97 	 	 871 	 	 840 	 	 8 	 	 1337 	 	 1440 	 	 56 
  98 	 	 670 	 	 398 	 	 7 	 	 149 	 	 218 	 	 62 
  99 	 	 358 	 	 1000 	 	 7 	 	 2827 	 	 2887 	 	 91 
  100 	 	 437 	 	 606 	 	 7 	 	 1720 	 	 1845 	 	 91 
 